300
300
240
240
240
240
239
239
239
239
237
235
234
234
234
233
232
231
231
230
230
230
229
229
228
228
227
226
225
225
225
225
224
224
223
222
222
222
222
222
221
221
221
220
220
220
219
218
218
217
217
217
216
216
215
214
214
213
213
212
212
211
211
211
210
209
209
208
206
206
204
203
202
202
202
201
200
199
198
196
195
194
194
193
192
192
192
192
192
190
190
189
189
188
188
186
186
185
185
183
182
182
181
181
181
181
181
180
179
178
177
176
175
174
174
172
171
171
169
169
166
166
166
163
163
162
161
161
161
160
159
159
158
158
157
157
156
154
153
153
153
153
152
151
150
150
150
148
148
148
147
146
146
146
145
145
145
145
144
144
144
143
143
143
142
142
141
141
139
138
137
137
137
136
135
134
134
134
130
130
130
129
129
128
128
127
127
127
126
126
126
125
124
123
122
121
121
121
120
120
118
115
114
114
114
113
112
111
111
110
110
109
109
109
108
106
106
106
106
106
105
105
105
105
104
104
104
103
101
101
100
100
99
98
98
98
96
95
94
94
93
91
91
91
90
90
89
88
88
87
86
85
84
84
82
82
81
81
81
80
80
78
78
78
78
77
77
77
77
77
76
76
75
75
74
74
70
70
70
70
70
69
69
68
68
68
67
66
65
65
65
64
64
63
63
62
62
61
61
60
60
60
